p tw 210 389
1 100
1 101
1 208
1 209
2 120
2 121
2 146
2 147
3 66
3 67
3 155
3 156
3 167
3 168
4 89
4 90
4 189
4 190
5 93
5 94
5 200
5 201
6 111
6 112
6 168
6 169
7 67
7 68
7 169
7 170
8 73
8 74
8 153
8 154
9 91
9 92
9 197
9 198
10 97
10 98
10 205
10 206
11 65
11 66
11 166
11 167
12 121
12 122
12 145
12 146
13 123
13 124
13 185
13 186
14 16
14 117
14 118
14 156
15 125
15 126
15 188
15 189
16 127
16 128
16 156
17 136
17 137
17 152
17 153
17 165
17 166
18 88
18 187
18 188
19 115
19 116
19 151
19 152
20 87
20 172
20 173
21 77
21 78
21 147
21 148
21 201
21 202
22 28
22 102
22 103
22 210
23 132
23 133
23 202
23 203
24 142
24 143
24 203
24 204
25 108
25 109
25 148
25 149
25 160
25 161
26 109
26 110
26 162
26 163
27 83
27 84
27 149
27 150
28 104
28 105
28 210
29 129
29 130
29 195
29 196
30 69
30 174
30 175
31 138
31 175
31 176
32 86
32 87
32 164
32 165
33 75
33 76
33 196
33 197
34 79
34 80
34 206
34 207
35 84
35 85
35 163
35 164
36 126
36 127
36 191
36 192
37 63
37 64
37 159
37 160
38 69
38 70
38 183
38 184
39 70
39 71
39 184
39 185
40 62
40 63
40 158
40 159
41 72
41 73
41 186
41 187
42 99
42 100
42 207
42 208
43 95
43 96
43 204
43 205
44 119
44 120
44 144
44 145
44 181
44 182
45 74
45 75
45 192
45 193
46 76
46 77
46 198
46 199
47 138
47 139
47 177
47 178
48 113
48 114
48 170
48 171
49 143
49 209
49 210
50 68
50 171
50 172
51 106
51 107
51 157
51 158
52 139
52 140
52 178
52 179
53 137
53 173
53 174
54 141
54 182
54 183
55 90
55 91
55 144
55 194
55 195
56 81
56 82
56 161
56 162
57 134
57 135
57 150
57 151
58 140
58 141
58 180
58 181
59 130
59 131
59 199
59 200
60 142
60 193
60 194
61 88
61 89
61 154
61 155
61 190
61 191
62 63
62 157
63 64
64 65
65 66
66 67
67 68
69 70
70 71
71 72
72 73
73 74
74 75
75 76
76 77
77 78
78 79
79 80
80 81
81 82
82 83
83 84
84 85
85 86
86 87
88 89
89 90
90 91
91 92
92 93
93 94
94 95
95 96
96 97
97 98
98 99
99 100
100 101
101 102
102 103
103 104
104 105
105 106
106 107
107 108
108 109
109 110
110 111
111 112
112 113
113 114
114 115
115 116
116 117
117 118
118 119
119 120
120 121
121 122
122 123
123 124
124 125
125 126
126 127
127 128
128 129
129 130
130 131
131 132
132 133
133 134
134 135
135 136
136 137
138 139
139 140
140 141
142 143
144 145
145 146
146 147
147 148
148 149
149 150
150 151
151 152
152 153
153 154
154 155
155 156
157 158
158 159
159 160
160 161
161 162
162 163
163 164
164 165
165 166
166 167
167 168
168 169
169 170
170 171
171 172
172 173
173 174
174 175
175 176
176 177
177 178
178 179
179 180
180 181
181 182
182 183
183 184
184 185
185 186
186 187
187 188
188 189
189 190
190 191
191 192
192 193
193 194
194 195
195 196
196 197
197 198
198 199
199 200
200 201
201 202
202 203
203 204
204 205
205 206
206 207
207 208
208 209
209 210
